DIMENSION: 18
EDGE_WEIGHT_TYPE: EXPLICIT
EDGE_WEIGHT_FORMAT: FULL_MATRIX
EDGE_WEIGHT_SECTION:
32767 42 32767 32767 70 84 46 34 32767 32767 32767 12 32767 32767 26 43 32767 32767 
42 32767 31 32767 46 32767 32767 32767 32767 32767 32767 32767 32767 66 35 3 32767 32767 
32767 31 32767 32767 32767 32767 32767 42 32767 32767 7 32767 65 28 32767 32767 92 22 
32767 32767 32767 32767 32767 61 32767 95 32767 42 32767 32767 32767 48 57 32767 32767 47 
70 46 32767 32767 32767 32767 63 32767 32767 32767 32767 78 59 32767 19 32767 32767 11 
84 32767 32767 61 32767 32767 32767 58 32767 32767 86 32767 26 32767 24 32767 32767 32767 
46 32767 32767 32767 63 32767 32767 3 19 32767 32767 98 22 67 32767 32767 51 32767 
34 32767 42 95 32767 58 3 32767 32767 52 75 32767 53 39 32767 32767 62 32767 
32767 32767 32767 32767 32767 32767 19 32767 32767 32767 87 33 32767 43 33 32767 17 32767 
32767 32767 32767 42 32767 32767 32767 52 32767 32767 32767 32767 32767 32767 32767 44 87 32767 
32767 32767 7 32767 32767 86 32767 75 87 32767 32767 26 32767 32767 85 32767 32767 63 
12 32767 32767 32767 78 32767 98 32767 33 32767 26 32767 53 32767 95 32767 32767 32767 
32767 32767 65 32767 59 26 22 53 32767 32767 32767 53 32767 9 32767 32767 32767 32767 
32767 66 28 48 32767 32767 67 39 43 32767 32767 32767 9 32767 32767 61 45 32767 
26 35 32767 57 19 24 32767 32767 33 32767 85 95 32767 32767 32767 32767 32767 32767 
43 3 32767 32767 32767 32767 32767 32767 32767 44 32767 32767 32767 61 32767 32767 32767 25 
32767 32767 92 32767 32767 32767 51 62 17 87 32767 32767 32767 45 32767 32767 32767 32767 
32767 32767 22 47 11 32767 32767 32767 32767 32767 63 32767 32767 32767 32767 25 32767 32767 
EOF